language ESSENCE' 1.0
$ Minion SolverNodes: 1278
$ Minion SolverTotalTime: 0.15981
$ Minion SolverTimeOut: 0
$ Savile Row TotalTime: 1.043
letting cells be [[6, 3], 
[7, 3], 
[8, 3], 
[8, 4], 
[7, 4], 
[6, 4], 
[5, 4], 
[4, 4], 
[3, 4], 
[2, 4], 
[1, 4], 
[1, 3], 
[1, 2], 
[1, 1], 
[2, 1], 
[3, 1], 
[4, 1], 
[5, 1], 
[6, 1], 
[7, 1], 
[7, 2], 
[6, 2], 
[5, 2], 
[4, 2], 
[3, 2], 
[3, 3], 
[2, 3]]
